************************************************************************
file with basedata            : mm45_.bas
initial value random generator: 1060761169
************************************************************************
projects                      :  1
jobs (incl. supersource/sink ):  12
horizon                       :  77
RESOURCES
  - renewable                 :  2   R
  - nonrenewable              :  2   N
  - doubly constrained        :  0   D
************************************************************************
PROJECT INFORMATION:
pronr.  #jobs rel.date duedate tardcost  MPM-Time
    1     10      0       12        8       12
************************************************************************
PRECEDENCE RELATIONS:
jobnr.    #modes  #successors   successors
   0        1          3           1   2   3
   1        3          1           4
   2        3          2           8   9
   3        3          1          10
   4        3          3           5   6   7
   5        3          1           9
   6        3          3           8   9  10
   7        3          1          10
   8        3          1          11
   9        3          1          11
  10        3          1          11
  11        1          0        
************************************************************************
REQUESTS/DURATIONS:
jobnr. mode duration  R 1  R 2  R 3  R 4  E(W 1)  E(W 2)  E(W 3)
------------------------------------------------------------------------
  0      1     0       0    0    0    0     0       0       0
  1      1     6       7   10    8    7    102      48      42
  2      1     1       9    1    6    8    11       6       8
  3      1     1       7    4   10    5    11      10       5
  4      1     1      10    9    4    8    19       4       8
  5      1     1       8    9    6    7    17       6       7
  6      1     1       5    8    5    2    13       5       2
  7      1     1       5    9    3    7    14       3       7
  8      1     4       8    8    7    9    64      28      36
  9      1     1       9    9    6    9    18       6       9
 10      1     2       7    6    8    6    26      16      12
 11      1     0       0    0    0    0     0       0       0
************************************************************************
RESOURCEAVAILABILITIES:
  R 1  R 2  R 3
   33   45   53
************************************************************************
RESOURCE LIMITS:
jobnr.  l(R 1)  u(R 1)  l(R 2)  u(R 2)  l(R 3)  u(R 3)
------------------------------------------------------------------------
  0        0       0       0       0       0       0
  1        9      17       4       8       4       7
  2        6      11       3       6       4       8
  3        6      11       5      10       3       5
  4       10      19       2       4       4       8
  5        9      17       3       6       4       7
  6        7      13       3       5       1       2
  7        8      14       2       3       4       7
  8        8      16       4       7       5       9
  9       10      18       3       6       5       9
 10        7      13       4       8       3       6
 11        0       0       0       0       0       0
************************************************************************
SCENARIOS:
------------------------------------------------------------------------
RESOURCE k = 1
s = 1: (0, 110, 16, 8, 16, 17, 11, 14, 52, 12, 25, 0)
s = 2: (0, 104, 9, 8, 28, 17, 20, 9, 53, 16, 17, 0)
s = 3: (0, 94, 9, 14, 19, 14, 17, 18, 71, 25, 37, 0)
s = 4: (0, 94, 15, 9, 13, 15, 14, 15, 66, 15, 30, 0)
s = 5: (0, 77, 12, 9, 13, 17, 15, 11, 65, 14, 33, 0)
s = 6: (0, 109, 11, 12, 16, 18, 17, 17, 49, 18, 26, 0)
s = 7: (0, 83, 15, 17, 22, 11, 25, 16, 83, 25, 22, 0)
s = 8: (0, 142, 7, 9, 20, 17, 14, 16, 58, 26, 14, 0)
s = 9: (0, 116, 13, 11, 18, 18, 15, 21, 47, 13, 31, 0)
s = 10: (0, 72, 13, 8, 11, 23, 20, 17, 92, 29, 28, 0)
s = 11: (0, 77, 15, 12, 21, 13, 18, 15, 88, 18, 17, 0)
s = 12: (0, 214, 9, 15, 15, 20, 16, 13, 89, 20, 27, 0)
s = 13: (0, 69, 13, 8, 27, 18, 12, 13, 58, 11, 24, 0)
s = 14: (0, 176, 10, 9, 11, 14, 10, 14, 96, 12, 23, 0)
s = 15: (0, 115, 15, 8, 24, 19, 14, 12, 62, 30, 15, 0)
s = 16: (0, 101, 9, 10, 14, 13, 13, 24, 67, 17, 17, 0)
s = 17: (0, 89, 12, 13, 24, 16, 9, 18, 68, 24, 17, 0)
s = 18: (0, 77, 17, 17, 14, 19, 12, 13, 51, 11, 29, 0)
s = 19: (0, 82, 9, 10, 18, 19, 17, 10, 49, 20, 23, 0)
s = 20: (0, 156, 11, 11, 15, 13, 11, 12, 81, 13, 46, 0)
s = 21: (0, 82, 14, 12, 20, 18, 13, 14, 42, 24, 31, 0)
s = 22: (0, 81, 10, 12, 22, 13, 20, 18, 76, 23, 19, 0)
s = 23: (0, 86, 12, 9, 18, 14, 16, 12, 58, 12, 20, 0)
s = 24: (0, 100, 11, 11, 22, 21, 19, 20, 80, 23, 24, 0)
s = 25: (0, 103, 12, 16, 22, 13, 13, 16, 59, 15, 35, 0)
s = 26: (0, 119, 13, 10, 19, 20, 12, 13, 48, 24, 15, 0)
s = 27: (0, 139, 8, 11, 18, 14, 16, 11, 45, 16, 20, 0)
s = 28: (0, 87, 7, 8, 16, 25, 18, 16, 55, 15, 20, 0)
s = 29: (0, 127, 7, 19, 22, 19, 20, 10, 39, 26, 28, 0)
s = 30: (0, 174, 10, 11, 19, 28, 14, 15, 117, 15, 35, 0)
s = 31: (0, 101, 16, 12, 15, 14, 23, 9, 48, 19, 32, 0)
s = 32: (0, 99, 16, 11, 15, 16, 12, 9, 74, 18, 21, 0)
s = 33: (0, 135, 17, 15, 18, 9, 10, 17, 57, 17, 18, 0)
s = 34: (0, 103, 11, 15, 15, 20, 20, 9, 47, 13, 19, 0)
s = 35: (0, 130, 13, 9, 27, 14, 16, 13, 51, 14, 30, 0)
s = 36: (0, 146, 9, 14, 21, 25, 14, 15, 64, 16, 26, 0)
s = 37: (0, 87, 9, 12, 24, 24, 10, 12, 46, 20, 37, 0)
s = 38: (0, 140, 13, 12, 16, 17, 9, 19, 68, 10, 25, 0)
s = 39: (0, 103, 7, 10, 28, 23, 9, 15, 74, 30, 30, 0)
s = 40: (0, 93, 15, 9, 12, 19, 12, 20, 54, 15, 26, 0)
s = 41: (0, 134, 11, 14, 28, 16, 10, 10, 43, 16, 25, 0)
s = 42: (0, 163, 7, 10, 21, 16, 18, 12, 59, 23, 18, 0)
s = 43: (0, 99, 10, 9, 15, 19, 13, 13, 71, 17, 18, 0)
s = 44: (0, 118, 11, 12, 19, 26, 10, 13, 68, 21, 24, 0)
s = 45: (0, 75, 11, 12, 16, 15, 16, 13, 92, 27, 35, 0)
s = 46: (0, 83, 10, 14, 14, 19, 18, 21, 115, 12, 26, 0)
s = 47: (0, 113, 13, 10, 12, 14, 13, 12, 68, 21, 18, 0)
s = 48: (0, 136, 9, 11, 14, 18, 14, 17, 67, 25, 34, 0)
s = 49: (0, 147, 12, 10, 19, 22, 14, 10, 81, 18, 24, 0)
s = 50: (0, 89, 16, 10, 23, 15, 17, 11, 103, 15, 38, 0)
s = 51: (0, 157, 14, 11, 16, 14, 14, 12, 69, 15, 19, 0)
s = 52: (0, 103, 14, 9, 12, 26, 12, 22, 69, 16, 32, 0)
s = 53: (0, 89, 14, 12, 24, 16, 10, 20, 62, 16, 21, 0)
s = 54: (0, 139, 12, 13, 21, 23, 15, 11, 62, 18, 25, 0)
s = 55: (0, 78, 10, 12, 17, 13, 8, 13, 88, 18, 31, 0)
s = 56: (0, 118, 7, 11, 16, 17, 10, 21, 70, 18, 34, 0)
s = 57: (0, 106, 8, 7, 21, 12, 16, 15, 88, 18, 20, 0)
s = 58: (0, 173, 11, 8, 25, 25, 14, 16, 76, 18, 31, 0)
s = 59: (0, 170, 14, 12, 22, 14, 11, 12, 55, 26, 34, 0)
s = 60: (0, 74, 15, 7, 18, 20, 11, 10, 45, 21, 40, 0)
s = 61: (0, 104, 9, 9, 20, 21, 14, 21, 58, 14, 26, 0)
s = 62: (0, 108, 11, 11, 13, 12, 9, 8, 61, 15, 41, 0)
s = 63: (0, 148, 12, 12, 14, 28, 11, 11, 65, 29, 25, 0)
s = 64: (0, 82, 15, 9, 13, 21, 15, 28, 46, 11, 26, 0)
s = 65: (0, 129, 7, 14, 17, 25, 7, 21, 63, 30, 27, 0)
s = 66: (0, 120, 11, 13, 24, 25, 14, 12, 68, 17, 20, 0)
s = 67: (0, 86, 9, 15, 17, 21, 17, 15, 54, 14, 37, 0)
s = 68: (0, 107, 8, 17, 22, 11, 13, 10, 69, 15, 35, 0)
s = 69: (0, 77, 7, 22, 17, 16, 19, 15, 53, 28, 21, 0)
s = 70: (0, 121, 9, 9, 20, 19, 9, 15, 72, 25, 33, 0)
s = 71: (0, 92, 12, 8, 24, 27, 9, 8, 76, 21, 16, 0)
s = 72: (0, 151, 17, 9, 18, 11, 12, 17, 103, 29, 36, 0)
s = 73: (0, 86, 8, 10, 22, 22, 10, 16, 66, 17, 24, 0)
s = 74: (0, 74, 7, 16, 17, 27, 16, 13, 49, 17, 30, 0)
s = 75: (0, 93, 10, 10, 21, 17, 13, 16, 51, 19, 25, 0)
s = 76: (0, 73, 12, 11, 20, 18, 12, 12, 84, 18, 30, 0)
s = 77: (0, 121, 17, 16, 19, 32, 11, 15, 53, 15, 32, 0)
s = 78: (0, 78, 15, 12, 24, 21, 20, 11, 46, 14, 34, 0)
s = 79: (0, 127, 11, 8, 26, 15, 11, 13, 54, 12, 21, 0)
s = 80: (0, 120, 11, 16, 16, 22, 16, 14, 64, 16, 19, 0)
s = 81: (0, 68, 13, 13, 19, 20, 11, 10, 45, 11, 29, 0)
s = 82: (0, 116, 13, 10, 22, 19, 14, 14, 107, 22, 49, 0)
s = 83: (0, 63, 9, 15, 15, 12, 19, 13, 98, 19, 30, 0)
s = 84: (0, 60, 6, 12, 18, 15, 15, 11, 109, 13, 23, 0)
s = 85: (0, 90, 9, 19, 17, 14, 19, 19, 80, 17, 23, 0)
s = 86: (0, 102, 8, 12, 20, 19, 12, 14, 36, 13, 28, 0)
s = 87: (0, 87, 9, 8, 17, 15, 13, 14, 55, 12, 29, 0)
s = 88: (0, 100, 16, 12, 23, 13, 9, 16, 76, 30, 30, 0)
s = 89: (0, 74, 10, 6, 31, 14, 16, 15, 41, 31, 37, 0)
s = 90: (0, 164, 17, 9, 17, 16, 16, 17, 73, 23, 20, 0)
s = 91: (0, 85, 10, 17, 15, 15, 13, 14, 61, 16, 18, 0)
s = 92: (0, 64, 15, 11, 12, 19, 16, 18, 40, 11, 21, 0)
s = 93: (0, 95, 8, 9, 21, 22, 11, 12, 55, 11, 24, 0)
s = 94: (0, 104, 9, 9, 17, 21, 23, 19, 93, 19, 31, 0)
s = 95: (0, 76, 13, 12, 15, 24, 14, 10, 40, 20, 26, 0)
s = 96: (0, 94, 15, 19, 23, 17, 10, 17, 87, 11, 26, 0)
s = 97: (0, 62, 9, 12, 24, 20, 9, 14, 49, 13, 36, 0)
s = 98: (0, 109, 14, 13, 16, 21, 15, 15, 85, 19, 29, 0)
s = 99: (0, 66, 10, 14, 15, 22, 22, 16, 77, 18, 24, 0)
s = 100: (0, 71, 7, 9, 12, 12, 11, 14, 56, 16, 27, 0)
s = 101: (0, 106, 13, 10, 15, 13, 17, 17, 49, 19, 23, 0)
s = 102: (0, 99, 9, 8, 25, 10, 13, 22, 56, 16, 28, 0)
s = 103: (0, 81, 10, 14, 34, 14, 9, 16, 99, 19, 30, 0)
s = 104: (0, 140, 14, 13, 17, 12, 11, 14, 52, 11, 27, 0)
s = 105: (0, 59, 7, 12, 19, 25, 17, 11, 48, 12, 26, 0)
s = 106: (0, 108, 7, 17, 21, 16, 10, 22, 43, 20, 35, 0)
s = 107: (0, 66, 15, 8, 15, 16, 18, 17, 54, 20, 21, 0)
s = 108: (0, 110, 8, 12, 29, 19, 11, 15, 49, 15, 26, 0)
s = 109: (0, 139, 11, 16, 12, 12, 13, 11, 51, 12, 19, 0)
s = 110: (0, 77, 12, 11, 18, 16, 11, 9, 61, 16, 28, 0)
s = 111: (0, 76, 12, 9, 19, 13, 10, 8, 92, 15, 27, 0)
s = 112: (0, 69, 11, 10, 21, 28, 8, 19, 77, 26, 29, 0)
s = 113: (0, 75, 8, 10, 18, 27, 9, 16, 68, 16, 23, 0)
s = 114: (0, 69, 15, 8, 25, 10, 8, 11, 82, 11, 23, 0)
s = 115: (0, 81, 10, 7, 14, 15, 15, 16, 56, 17, 21, 0)
s = 116: (0, 93, 10, 8, 18, 15, 12, 16, 79, 16, 40, 0)
s = 117: (0, 93, 17, 13, 17, 23, 14, 15, 38, 25, 28, 0)
s = 118: (0, 138, 11, 18, 15, 14, 15, 18, 69, 21, 28, 0)
s = 119: (0, 120, 10, 10, 25, 19, 16, 12, 46, 15, 41, 0)
s = 120: (0, 100, 10, 15, 33, 19, 23, 12, 75, 16, 24, 0)
s = 121: (0, 97, 7, 9, 25, 18, 14, 15, 59, 12, 15, 0)
s = 122: (0, 132, 14, 12, 19, 9, 22, 13, 48, 19, 24, 0)
s = 123: (0, 72, 14, 13, 25, 18, 18, 11, 77, 18, 29, 0)
s = 124: (0, 72, 10, 16, 19, 20, 19, 11, 88, 20, 41, 0)
s = 125: (0, 75, 10, 7, 22, 20, 20, 8, 69, 23, 30, 0)
s = 126: (0, 77, 13, 13, 31, 20, 19, 17, 66, 17, 17, 0)
s = 127: (0, 129, 17, 8, 22, 25, 21, 24, 72, 24, 17, 0)
s = 128: (0, 128, 8, 11, 14, 20, 11, 21, 99, 21, 38, 0)
s = 129: (0, 87, 13, 16, 16, 12, 20, 8, 60, 16, 22, 0)
s = 130: (0, 60, 14, 11, 22, 19, 14, 19, 79, 18, 27, 0)
s = 131: (0, 71, 13, 12, 20, 11, 12, 13, 82, 20, 24, 0)
s = 132: (0, 96, 9, 20, 24, 28, 11, 11, 60, 20, 20, 0)
s = 133: (0, 135, 6, 7, 24, 27, 11, 16, 45, 25, 26, 0)
s = 134: (0, 100, 16, 11, 18, 19, 16, 16, 49, 14, 25, 0)
s = 135: (0, 140, 9, 12, 19, 16, 18, 17, 49, 12, 27, 0)
s = 136: (0, 81, 7, 9, 21, 10, 12, 10, 62, 21, 30, 0)
s = 137: (0, 97, 8, 11, 22, 15, 17, 11, 62, 17, 33, 0)
s = 138: (0, 82, 7, 10, 17, 21, 12, 17, 52, 15, 29, 0)
s = 139: (0, 87, 10, 7, 32, 16, 9, 14, 49, 18, 22, 0)
s = 140: (0, 138, 7, 11, 14, 17, 13, 26, 40, 16, 26, 0)
s = 141: (0, 75, 8, 15, 11, 28, 9, 15, 62, 18, 19, 0)
s = 142: (0, 114, 11, 11, 18, 12, 13, 14, 83, 16, 43, 0)
s = 143: (0, 61, 7, 14, 11, 12, 16, 13, 78, 22, 25, 0)
s = 144: (0, 149, 11, 8, 15, 26, 11, 10, 86, 12, 26, 0)
s = 145: (0, 106, 13, 17, 21, 14, 21, 10, 41, 10, 32, 0)
s = 146: (0, 115, 8, 11, 20, 14, 15, 18, 105, 14, 28, 0)
s = 147: (0, 70, 11, 14, 19, 12, 20, 20, 91, 14, 32, 0)
s = 148: (0, 118, 17, 9, 25, 21, 8, 15, 73, 15, 31, 0)
s = 149: (0, 117, 10, 8, 25, 10, 20, 15, 58, 18, 23, 0)
s = 150: (0, 132, 19, 10, 14, 15, 8, 12, 44, 15, 22, 0)
s = 151: (0, 96, 9, 10, 17, 12, 17, 20, 66, 29, 48, 0)
s = 152: (0, 77, 17, 7, 16, 20, 13, 10, 77, 12, 29, 0)
s = 153: (0, 71, 13, 11, 13, 19, 21, 12, 89, 20, 29, 0)
s = 154: (0, 76, 12, 16, 14, 14, 12, 17, 55, 18, 30, 0)
s = 155: (0, 120, 7, 10, 15, 22, 14, 17, 72, 14, 22, 0)
s = 156: (0, 96, 15, 13, 21, 20, 16, 11, 83, 12, 22, 0)
s = 157: (0, 98, 13, 8, 18, 22, 18, 9, 101, 25, 28, 0)
s = 158: (0, 78, 16, 16, 22, 23, 12, 14, 62, 27, 21, 0)
s = 159: (0, 83, 15, 10, 19, 20, 24, 13, 81, 19, 20, 0)
s = 160: (0, 84, 10, 7, 11, 24, 12, 18, 56, 22, 30, 0)
s = 161: (0, 65, 8, 8, 33, 16, 13, 8, 81, 21, 18, 0)
s = 162: (0, 96, 15, 11, 22, 19, 12, 20, 38, 16, 25, 0)
s = 163: (0, 140, 13, 8, 23, 15, 14, 23, 49, 10, 27, 0)
s = 164: (0, 105, 16, 15, 26, 13, 17, 17, 53, 20, 24, 0)
s = 165: (0, 102, 13, 12, 17, 20, 10, 9, 95, 12, 34, 0)
s = 166: (0, 121, 10, 13, 23, 18, 10, 11, 101, 16, 37, 0)
s = 167: (0, 86, 9, 8, 16, 21, 17, 14, 34, 15, 23, 0)
s = 168: (0, 139, 8, 18, 14, 23, 12, 11, 75, 28, 24, 0)
s = 169: (0, 148, 12, 13, 14, 20, 13, 13, 104, 14, 24, 0)
s = 170: (0, 119, 17, 12, 16, 23, 11, 14, 34, 21, 30, 0)
s = 171: (0, 85, 18, 14, 14, 12, 18, 15, 82, 19, 44, 0)
s = 172: (0, 111, 12, 13, 21, 19, 15, 13, 85, 18, 27, 0)
s = 173: (0, 77, 9, 18, 21, 17, 8, 17, 53, 19, 15, 0)
s = 174: (0, 129, 9, 17, 19, 15, 16, 10, 38, 12, 19, 0)
s = 175: (0, 80, 8, 11, 23, 19, 10, 11, 66, 13, 16, 0)
s = 176: (0, 88, 15, 10, 20, 14, 14, 17, 100, 12, 18, 0)
s = 177: (0, 95, 8, 7, 21, 15, 11, 13, 59, 28, 25, 0)
s = 178: (0, 129, 10, 7, 13, 23, 14, 13, 49, 12, 37, 0)
s = 179: (0, 113, 11, 8, 19, 17, 13, 8, 88, 22, 25, 0)
s = 180: (0, 108, 11, 14, 16, 17, 15, 14, 42, 17, 24, 0)
s = 181: (0, 84, 8, 10, 22, 16, 7, 15, 59, 24, 15, 0)
s = 182: (0, 79, 9, 7, 20, 21, 9, 14, 54, 14, 36, 0)
s = 183: (0, 100, 7, 9, 15, 21, 10, 17, 88, 28, 39, 0)
s = 184: (0, 111, 11, 9, 15, 24, 12, 11, 56, 18, 32, 0)
s = 185: (0, 110, 17, 15, 24, 10, 10, 15, 56, 23, 21, 0)
s = 186: (0, 98, 18, 10, 16, 29, 12, 12, 60, 12, 21, 0)
s = 187: (0, 103, 13, 14, 15, 24, 8, 11, 63, 25, 33, 0)
s = 188: (0, 84, 9, 14, 17, 15, 15, 16, 66, 19, 30, 0)
s = 189: (0, 124, 9, 8, 11, 21, 11, 12, 62, 23, 29, 0)
s = 190: (0, 98, 8, 8, 18, 25, 15, 21, 47, 11, 24, 0)
s = 191: (0, 97, 12, 10, 13, 13, 12, 19, 72, 18, 25, 0)
s = 192: (0, 134, 8, 16, 30, 11, 12, 14, 51, 20, 26, 0)
s = 193: (0, 108, 8, 11, 13, 19, 11, 16, 81, 23, 17, 0)
s = 194: (0, 67, 9, 16, 21, 25, 15, 8, 72, 13, 29, 0)
s = 195: (0, 123, 16, 8, 16, 15, 10, 16, 47, 25, 30, 0)
s = 196: (0, 129, 7, 10, 19, 26, 14, 17, 36, 17, 29, 0)
s = 197: (0, 63, 10, 12, 14, 25, 12, 18, 67, 24, 22, 0)
s = 198: (0, 97, 16, 12, 14, 14, 13, 17, 62, 27, 21, 0)
s = 199: (0, 129, 12, 15, 20, 24, 8, 17, 128, 12, 19, 0)
s = 200: (0, 99, 11, 10, 19, 13, 9, 11, 50, 19, 17, 0)
------------------------------------------------------------------------
RESOURCE k = 2
s = 1: (0, 52, 9, 7, 4, 6, 5, 3, 23, 4, 16, 0)
s = 2: (0, 49, 5, 7, 6, 6, 8, 2, 23, 6, 11, 0)
s = 3: (0, 44, 5, 13, 4, 5, 7, 4, 31, 9, 23, 0)
s = 4: (0, 45, 8, 8, 3, 5, 6, 4, 29, 5, 19, 0)
s = 5: (0, 36, 7, 8, 3, 6, 6, 3, 29, 5, 21, 0)
s = 6: (0, 51, 6, 11, 4, 7, 7, 4, 22, 6, 16, 0)
s = 7: (0, 39, 8, 16, 5, 4, 10, 4, 37, 9, 14, 0)
s = 8: (0, 67, 4, 9, 5, 6, 6, 4, 26, 9, 9, 0)
s = 9: (0, 55, 8, 10, 4, 7, 6, 5, 21, 5, 19, 0)
s = 10: (0, 34, 7, 8, 3, 8, 8, 4, 41, 10, 18, 0)
s = 11: (0, 37, 8, 11, 5, 5, 7, 4, 39, 6, 11, 0)
s = 12: (0, 101, 5, 14, 3, 7, 6, 3, 39, 7, 17, 0)
s = 13: (0, 33, 7, 7, 6, 7, 5, 3, 25, 4, 15, 0)
s = 14: (0, 83, 6, 8, 3, 5, 4, 3, 42, 4, 14, 0)
s = 15: (0, 54, 8, 7, 5, 7, 6, 3, 27, 10, 10, 0)
s = 16: (0, 48, 5, 9, 3, 5, 5, 6, 30, 6, 11, 0)
s = 17: (0, 42, 7, 12, 5, 6, 4, 4, 30, 8, 11, 0)
s = 18: (0, 36, 9, 16, 3, 7, 5, 3, 22, 4, 18, 0)
s = 19: (0, 39, 5, 10, 4, 7, 7, 2, 22, 7, 14, 0)
s = 20: (0, 74, 6, 10, 3, 5, 5, 3, 36, 5, 28, 0)
s = 21: (0, 39, 8, 11, 5, 7, 5, 3, 19, 8, 19, 0)
s = 22: (0, 38, 6, 11, 5, 5, 8, 4, 34, 8, 12, 0)
s = 23: (0, 41, 7, 8, 4, 5, 6, 3, 26, 4, 13, 0)
s = 24: (0, 48, 6, 10, 5, 8, 8, 5, 35, 8, 15, 0)
s = 25: (0, 49, 7, 15, 5, 5, 5, 4, 26, 5, 22, 0)
s = 26: (0, 56, 7, 9, 4, 7, 5, 3, 21, 8, 9, 0)
s = 27: (0, 66, 5, 10, 4, 5, 7, 3, 20, 6, 13, 0)
s = 28: (0, 41, 4, 8, 4, 9, 7, 4, 24, 5, 13, 0)
s = 29: (0, 60, 4, 17, 5, 7, 8, 2, 17, 9, 17, 0)
s = 30: (0, 82, 6, 10, 4, 10, 6, 4, 51, 5, 22, 0)
s = 31: (0, 48, 9, 11, 4, 5, 9, 2, 21, 7, 20, 0)
s = 32: (0, 47, 9, 10, 4, 6, 5, 2, 33, 6, 13, 0)
s = 33: (0, 64, 9, 14, 4, 4, 4, 4, 25, 6, 11, 0)
s = 34: (0, 49, 6, 14, 3, 7, 8, 2, 21, 5, 12, 0)
s = 35: (0, 61, 7, 9, 6, 5, 7, 3, 22, 5, 19, 0)
s = 36: (0, 69, 5, 13, 5, 9, 6, 4, 28, 6, 16, 0)
s = 37: (0, 41, 5, 11, 5, 9, 4, 3, 20, 7, 23, 0)
s = 38: (0, 66, 7, 11, 4, 6, 4, 4, 30, 4, 15, 0)
s = 39: (0, 49, 4, 9, 6, 9, 4, 4, 33, 10, 19, 0)
s = 40: (0, 44, 8, 8, 3, 7, 5, 5, 24, 5, 16, 0)
s = 41: (0, 64, 6, 13, 6, 6, 4, 2, 19, 6, 16, 0)
s = 42: (0, 77, 4, 9, 5, 6, 7, 3, 26, 8, 11, 0)
s = 43: (0, 47, 6, 8, 4, 7, 5, 3, 31, 6, 11, 0)
s = 44: (0, 56, 6, 11, 4, 10, 4, 3, 30, 7, 15, 0)
s = 45: (0, 36, 6, 11, 4, 6, 6, 3, 40, 9, 21, 0)
s = 46: (0, 39, 5, 13, 3, 7, 7, 5, 51, 4, 16, 0)
s = 47: (0, 53, 7, 9, 3, 5, 5, 3, 30, 7, 12, 0)
s = 48: (0, 64, 5, 10, 3, 7, 6, 4, 30, 9, 21, 0)
s = 49: (0, 69, 7, 9, 4, 8, 6, 3, 36, 6, 15, 0)
s = 50: (0, 42, 9, 9, 5, 6, 7, 3, 45, 5, 24, 0)
s = 51: (0, 74, 8, 10, 4, 5, 6, 3, 31, 5, 12, 0)
s = 52: (0, 49, 8, 8, 3, 9, 5, 5, 31, 6, 20, 0)
s = 53: (0, 42, 8, 11, 5, 6, 4, 5, 27, 6, 13, 0)
s = 54: (0, 66, 7, 12, 5, 8, 6, 3, 27, 6, 16, 0)
s = 55: (0, 37, 6, 11, 4, 5, 4, 3, 39, 6, 19, 0)
s = 56: (0, 56, 4, 10, 4, 6, 4, 5, 31, 6, 21, 0)
s = 57: (0, 50, 5, 7, 5, 5, 6, 4, 39, 6, 13, 0)
s = 58: (0, 81, 6, 8, 6, 9, 6, 4, 34, 6, 19, 0)
s = 59: (0, 80, 8, 11, 5, 5, 5, 3, 24, 9, 21, 0)
s = 60: (0, 35, 9, 7, 4, 7, 4, 3, 20, 7, 25, 0)
s = 61: (0, 49, 5, 8, 5, 8, 6, 5, 26, 5, 16, 0)
s = 62: (0, 51, 6, 10, 3, 5, 4, 2, 27, 5, 25, 0)
s = 63: (0, 70, 7, 11, 3, 10, 5, 3, 29, 10, 15, 0)
s = 64: (0, 39, 9, 8, 3, 8, 6, 6, 21, 4, 16, 0)
s = 65: (0, 61, 4, 13, 4, 9, 3, 5, 28, 10, 17, 0)
s = 66: (0, 57, 6, 11, 5, 9, 6, 3, 30, 6, 13, 0)
s = 67: (0, 41, 5, 14, 4, 8, 7, 4, 24, 5, 23, 0)
s = 68: (0, 50, 4, 16, 5, 4, 5, 2, 31, 5, 22, 0)
s = 69: (0, 36, 4, 20, 4, 6, 7, 4, 24, 10, 13, 0)
s = 70: (0, 57, 5, 8, 5, 7, 4, 4, 32, 9, 20, 0)
s = 71: (0, 43, 7, 8, 5, 10, 4, 2, 34, 7, 10, 0)
s = 72: (0, 71, 9, 8, 4, 4, 5, 4, 45, 10, 23, 0)
s = 73: (0, 41, 4, 9, 5, 8, 4, 4, 29, 6, 15, 0)
s = 74: (0, 35, 4, 14, 4, 10, 7, 3, 22, 6, 19, 0)
s = 75: (0, 44, 6, 9, 5, 6, 5, 4, 23, 7, 16, 0)
s = 76: (0, 35, 7, 10, 5, 7, 5, 3, 37, 6, 18, 0)
s = 77: (0, 57, 9, 15, 4, 12, 5, 4, 24, 5, 20, 0)
s = 78: (0, 37, 9, 11, 5, 8, 8, 3, 21, 5, 21, 0)
s = 79: (0, 60, 6, 8, 6, 6, 5, 3, 24, 4, 13, 0)
s = 80: (0, 57, 6, 15, 4, 8, 7, 3, 28, 6, 12, 0)
s = 81: (0, 32, 7, 12, 4, 8, 4, 3, 20, 4, 18, 0)
s = 82: (0, 55, 7, 9, 5, 7, 6, 3, 47, 8, 31, 0)
s = 83: (0, 30, 5, 13, 4, 5, 7, 3, 43, 7, 18, 0)
s = 84: (0, 29, 4, 11, 4, 6, 6, 3, 48, 5, 15, 0)
s = 85: (0, 43, 5, 17, 4, 5, 8, 5, 35, 6, 15, 0)
s = 86: (0, 48, 4, 11, 5, 7, 5, 3, 16, 5, 17, 0)
s = 87: (0, 41, 5, 7, 4, 6, 5, 3, 24, 4, 18, 0)
s = 88: (0, 47, 9, 11, 5, 5, 4, 4, 34, 10, 18, 0)
s = 89: (0, 35, 5, 6, 7, 5, 6, 4, 18, 11, 23, 0)
s = 90: (0, 77, 10, 8, 4, 6, 7, 4, 32, 8, 12, 0)
s = 91: (0, 40, 6, 16, 4, 6, 5, 3, 27, 6, 11, 0)
s = 92: (0, 30, 9, 10, 3, 7, 6, 4, 18, 4, 13, 0)
s = 93: (0, 45, 5, 9, 5, 8, 4, 3, 24, 4, 15, 0)
s = 94: (0, 49, 5, 8, 4, 8, 9, 5, 41, 7, 19, 0)
s = 95: (0, 36, 7, 11, 4, 9, 6, 3, 18, 7, 16, 0)
s = 96: (0, 45, 8, 17, 5, 6, 4, 4, 38, 4, 16, 0)
s = 97: (0, 29, 5, 11, 5, 7, 4, 3, 22, 5, 22, 0)
s = 98: (0, 51, 8, 12, 4, 8, 6, 4, 37, 7, 18, 0)
s = 99: (0, 31, 6, 13, 4, 8, 9, 4, 34, 6, 15, 0)
s = 100: (0, 34, 4, 8, 3, 4, 5, 3, 25, 6, 17, 0)
s = 101: (0, 50, 8, 9, 4, 5, 7, 4, 22, 7, 14, 0)
s = 102: (0, 47, 5, 7, 6, 4, 5, 5, 25, 6, 17, 0)
s = 103: (0, 38, 6, 13, 8, 5, 4, 4, 44, 7, 19, 0)
s = 104: (0, 66, 8, 12, 4, 5, 4, 3, 23, 4, 17, 0)
s = 105: (0, 28, 4, 11, 4, 9, 7, 3, 21, 4, 16, 0)
s = 106: (0, 51, 4, 16, 5, 6, 4, 5, 19, 7, 22, 0)
s = 107: (0, 31, 8, 7, 4, 6, 7, 4, 24, 7, 13, 0)
s = 108: (0, 52, 5, 11, 6, 7, 4, 4, 22, 5, 16, 0)
s = 109: (0, 66, 6, 15, 3, 4, 5, 3, 23, 4, 12, 0)
s = 110: (0, 36, 7, 10, 4, 6, 4, 2, 27, 6, 17, 0)
s = 111: (0, 36, 7, 8, 4, 5, 4, 2, 41, 5, 17, 0)
s = 112: (0, 33, 6, 9, 5, 10, 3, 4, 34, 9, 18, 0)
s = 113: (0, 36, 4, 9, 4, 10, 4, 4, 30, 6, 14, 0)
s = 114: (0, 33, 8, 7, 6, 4, 3, 3, 36, 4, 15, 0)
s = 115: (0, 38, 6, 7, 3, 6, 6, 4, 25, 6, 13, 0)
s = 116: (0, 44, 5, 7, 4, 6, 5, 4, 35, 6, 25, 0)
s = 117: (0, 44, 9, 12, 4, 8, 6, 4, 17, 9, 17, 0)
s = 118: (0, 65, 6, 16, 4, 5, 6, 4, 31, 7, 18, 0)
s = 119: (0, 57, 6, 9, 6, 7, 6, 3, 20, 5, 26, 0)
s = 120: (0, 47, 6, 14, 7, 7, 9, 3, 33, 6, 15, 0)
s = 121: (0, 46, 4, 8, 6, 7, 6, 4, 26, 4, 9, 0)
s = 122: (0, 63, 8, 11, 4, 4, 9, 3, 21, 7, 15, 0)
s = 123: (0, 34, 8, 11, 6, 7, 7, 3, 34, 6, 18, 0)
s = 124: (0, 34, 6, 15, 4, 7, 8, 3, 39, 7, 25, 0)
s = 125: (0, 36, 6, 6, 5, 7, 8, 2, 30, 8, 19, 0)
s = 126: (0, 37, 7, 12, 7, 7, 8, 4, 29, 6, 11, 0)
s = 127: (0, 61, 10, 7, 5, 9, 8, 5, 32, 8, 11, 0)
s = 128: (0, 60, 5, 10, 3, 7, 5, 5, 44, 7, 24, 0)
s = 129: (0, 41, 7, 15, 4, 5, 8, 2, 27, 6, 14, 0)
s = 130: (0, 28, 8, 10, 5, 7, 6, 5, 35, 6, 17, 0)
s = 131: (0, 33, 7, 11, 5, 4, 5, 3, 36, 7, 15, 0)
s = 132: (0, 45, 5, 18, 5, 10, 4, 3, 27, 7, 12, 0)
s = 133: (0, 64, 4, 7, 6, 10, 5, 4, 20, 9, 16, 0)
s = 134: (0, 47, 9, 10, 4, 7, 6, 4, 22, 5, 15, 0)
s = 135: (0, 66, 5, 11, 4, 6, 7, 4, 22, 4, 17, 0)
s = 136: (0, 39, 4, 9, 5, 4, 5, 2, 27, 7, 18, 0)
s = 137: (0, 46, 4, 10, 5, 5, 7, 3, 27, 6, 20, 0)
s = 138: (0, 39, 4, 9, 4, 8, 5, 4, 23, 5, 18, 0)
s = 139: (0, 41, 6, 6, 7, 6, 4, 3, 22, 6, 13, 0)
s = 140: (0, 65, 4, 10, 3, 6, 5, 6, 18, 6, 16, 0)
s = 141: (0, 36, 5, 14, 3, 10, 4, 4, 28, 6, 12, 0)
s = 142: (0, 54, 6, 10, 4, 4, 5, 3, 36, 6, 26, 0)
s = 143: (0, 29, 4, 13, 3, 4, 7, 3, 34, 8, 15, 0)
s = 144: (0, 71, 6, 8, 3, 10, 5, 3, 38, 4, 16, 0)
s = 145: (0, 50, 7, 15, 5, 5, 8, 3, 18, 4, 20, 0)
s = 146: (0, 54, 4, 10, 5, 5, 6, 4, 46, 5, 17, 0)
s = 147: (0, 33, 6, 12, 4, 4, 8, 5, 40, 5, 20, 0)
s = 148: (0, 56, 9, 8, 6, 8, 3, 4, 32, 5, 19, 0)
s = 149: (0, 55, 6, 8, 6, 4, 8, 4, 26, 6, 14, 0)
s = 150: (0, 62, 11, 9, 3, 6, 3, 3, 20, 5, 14, 0)
s = 151: (0, 46, 5, 9, 4, 5, 7, 5, 29, 10, 30, 0)
s = 152: (0, 37, 9, 7, 4, 7, 5, 2, 34, 4, 18, 0)
s = 153: (0, 34, 7, 10, 3, 7, 8, 3, 39, 7, 18, 0)
s = 154: (0, 36, 7, 15, 3, 5, 5, 4, 24, 6, 19, 0)
s = 155: (0, 57, 4, 9, 3, 8, 6, 4, 32, 5, 14, 0)
s = 156: (0, 45, 8, 12, 5, 7, 6, 3, 37, 4, 14, 0)
s = 157: (0, 46, 7, 7, 4, 8, 7, 2, 44, 9, 17, 0)
s = 158: (0, 37, 9, 15, 5, 8, 5, 3, 27, 9, 13, 0)
s = 159: (0, 40, 8, 10, 4, 7, 9, 3, 36, 7, 13, 0)
s = 160: (0, 40, 6, 6, 3, 9, 5, 4, 25, 8, 19, 0)
s = 161: (0, 31, 5, 7, 7, 6, 5, 2, 36, 7, 11, 0)
s = 162: (0, 45, 8, 10, 5, 7, 5, 5, 17, 6, 16, 0)
s = 163: (0, 66, 7, 7, 5, 5, 6, 5, 22, 4, 17, 0)
s = 164: (0, 50, 9, 13, 6, 5, 7, 4, 23, 7, 15, 0)
s = 165: (0, 48, 7, 11, 4, 7, 4, 2, 42, 4, 21, 0)
s = 166: (0, 57, 6, 12, 5, 7, 4, 3, 44, 6, 23, 0)
s = 167: (0, 41, 5, 7, 4, 8, 7, 3, 15, 5, 15, 0)
s = 168: (0, 66, 5, 17, 3, 9, 5, 3, 33, 10, 15, 0)
s = 169: (0, 70, 7, 12, 3, 7, 5, 3, 46, 5, 15, 0)
s = 170: (0, 56, 10, 11, 4, 9, 5, 3, 15, 7, 19, 0)
s = 171: (0, 40, 10, 12, 3, 5, 7, 4, 36, 7, 27, 0)
s = 172: (0, 52, 7, 12, 5, 7, 6, 3, 38, 6, 17, 0)
s = 173: (0, 36, 5, 17, 5, 6, 3, 4, 23, 7, 9, 0)
s = 174: (0, 61, 5, 15, 4, 6, 7, 3, 17, 4, 12, 0)
s = 175: (0, 38, 5, 10, 5, 7, 4, 3, 29, 5, 10, 0)
s = 176: (0, 42, 9, 9, 5, 5, 6, 4, 44, 4, 11, 0)
s = 177: (0, 45, 4, 6, 5, 6, 4, 3, 26, 10, 16, 0)
s = 178: (0, 61, 6, 7, 3, 8, 6, 3, 22, 4, 23, 0)
s = 179: (0, 54, 6, 7, 4, 6, 5, 2, 39, 8, 15, 0)
s = 180: (0, 51, 6, 12, 4, 6, 6, 3, 19, 6, 15, 0)
s = 181: (0, 40, 5, 9, 5, 6, 3, 4, 26, 8, 10, 0)
s = 182: (0, 37, 5, 6, 5, 8, 4, 3, 24, 5, 22, 0)
s = 183: (0, 47, 4, 8, 4, 8, 4, 4, 39, 10, 24, 0)
s = 184: (0, 52, 6, 8, 4, 9, 5, 3, 25, 6, 20, 0)
s = 185: (0, 52, 9, 13, 5, 4, 4, 4, 25, 8, 13, 0)
s = 186: (0, 46, 10, 9, 4, 11, 5, 3, 27, 4, 13, 0)
s = 187: (0, 49, 8, 12, 4, 9, 3, 3, 28, 9, 21, 0)
s = 188: (0, 40, 5, 12, 4, 6, 6, 4, 29, 7, 18, 0)
s = 189: (0, 59, 5, 7, 3, 8, 4, 3, 28, 8, 18, 0)
s = 190: (0, 46, 5, 7, 4, 9, 6, 5, 21, 4, 15, 0)
s = 191: (0, 46, 7, 9, 3, 5, 5, 4, 32, 6, 15, 0)
s = 192: (0, 63, 5, 15, 7, 4, 5, 3, 22, 7, 16, 0)
s = 193: (0, 51, 5, 10, 3, 7, 5, 4, 36, 8, 11, 0)
s = 194: (0, 32, 5, 14, 5, 9, 6, 2, 32, 5, 18, 0)
s = 195: (0, 58, 9, 7, 4, 6, 4, 4, 21, 9, 18, 0)
s = 196: (0, 61, 4, 9, 4, 9, 6, 4, 16, 6, 18, 0)
s = 197: (0, 30, 6, 11, 3, 9, 5, 4, 30, 8, 13, 0)
s = 198: (0, 46, 9, 11, 3, 5, 5, 4, 27, 9, 13, 0)
s = 199: (0, 61, 7, 14, 5, 9, 3, 4, 56, 4, 12, 0)
s = 200: (0, 47, 6, 9, 4, 5, 4, 3, 22, 7, 11, 0)
------------------------------------------------------------------------
RESOURCE k = 3
s = 1: (0, 45, 12, 4, 7, 7, 2, 7, 30, 6, 12, 0)
s = 2: (0, 43, 7, 4, 12, 7, 4, 5, 30, 8, 8, 0)
s = 3: (0, 39, 7, 7, 8, 6, 3, 9, 40, 13, 17, 0)
s = 4: (0, 39, 11, 4, 6, 6, 3, 8, 37, 8, 14, 0)
s = 5: (0, 32, 9, 4, 6, 7, 3, 6, 37, 7, 16, 0)
s = 6: (0, 45, 8, 6, 7, 8, 3, 9, 28, 9, 12, 0)
s = 7: (0, 34, 11, 8, 9, 5, 4, 8, 47, 13, 11, 0)
s = 8: (0, 59, 5, 5, 9, 7, 3, 8, 33, 13, 7, 0)
s = 9: (0, 48, 10, 5, 8, 8, 3, 11, 26, 7, 14, 0)
s = 10: (0, 30, 10, 4, 5, 10, 4, 9, 52, 15, 13, 0)
s = 11: (0, 32, 11, 6, 9, 6, 3, 8, 50, 9, 8, 0)
s = 12: (0, 88, 7, 7, 6, 8, 3, 7, 50, 10, 13, 0)
s = 13: (0, 29, 9, 4, 12, 8, 2, 7, 33, 6, 11, 0)
s = 14: (0, 73, 7, 4, 5, 6, 2, 7, 54, 6, 11, 0)
s = 15: (0, 48, 11, 4, 10, 8, 3, 6, 35, 15, 7, 0)
s = 16: (0, 42, 7, 5, 6, 6, 2, 12, 38, 9, 8, 0)
s = 17: (0, 37, 9, 6, 10, 7, 2, 9, 38, 12, 8, 0)
s = 18: (0, 32, 12, 8, 6, 8, 2, 7, 29, 6, 14, 0)
s = 19: (0, 34, 7, 5, 8, 8, 3, 5, 28, 10, 11, 0)
s = 20: (0, 65, 8, 5, 6, 6, 2, 6, 46, 7, 21, 0)
s = 21: (0, 34, 10, 6, 9, 8, 2, 7, 24, 12, 15, 0)
s = 22: (0, 34, 8, 6, 9, 6, 3, 9, 43, 12, 9, 0)
s = 23: (0, 36, 9, 4, 8, 6, 3, 6, 33, 6, 10, 0)
s = 24: (0, 42, 8, 5, 10, 9, 3, 10, 45, 12, 11, 0)
s = 25: (0, 43, 9, 8, 10, 5, 2, 8, 33, 8, 16, 0)
s = 26: (0, 49, 10, 5, 8, 8, 2, 7, 27, 12, 7, 0)
s = 27: (0, 58, 6, 5, 8, 6, 3, 6, 26, 8, 10, 0)
s = 28: (0, 36, 5, 4, 7, 11, 3, 8, 31, 8, 10, 0)
s = 29: (0, 53, 6, 9, 9, 8, 4, 5, 22, 13, 13, 0)
s = 30: (0, 72, 7, 5, 8, 12, 3, 8, 66, 8, 17, 0)
s = 31: (0, 42, 12, 6, 7, 6, 4, 5, 27, 10, 15, 0)
s = 32: (0, 41, 11, 5, 7, 7, 2, 5, 42, 9, 10, 0)
s = 33: (0, 56, 12, 7, 8, 4, 2, 9, 32, 9, 9, 0)
s = 34: (0, 43, 8, 7, 6, 8, 4, 5, 26, 7, 9, 0)
s = 35: (0, 54, 9, 5, 12, 6, 3, 7, 29, 7, 14, 0)
s = 36: (0, 60, 6, 7, 9, 11, 3, 8, 36, 8, 12, 0)
s = 37: (0, 36, 7, 6, 10, 10, 2, 6, 26, 10, 17, 0)
s = 38: (0, 58, 9, 6, 7, 7, 2, 10, 39, 5, 12, 0)
s = 39: (0, 43, 5, 5, 12, 10, 2, 8, 42, 15, 14, 0)
s = 40: (0, 39, 11, 4, 5, 8, 2, 10, 31, 8, 12, 0)
s = 41: (0, 56, 8, 7, 12, 7, 2, 5, 25, 8, 12, 0)
s = 42: (0, 68, 5, 5, 9, 7, 3, 6, 33, 12, 9, 0)
s = 43: (0, 41, 7, 4, 7, 8, 2, 7, 40, 9, 9, 0)
s = 44: (0, 49, 8, 6, 8, 11, 2, 7, 39, 11, 12, 0)
s = 45: (0, 31, 8, 6, 7, 7, 3, 7, 52, 14, 16, 0)
s = 46: (0, 35, 7, 7, 6, 8, 3, 11, 65, 6, 12, 0)
s = 47: (0, 47, 10, 5, 5, 6, 2, 6, 39, 11, 9, 0)
s = 48: (0, 56, 7, 5, 6, 8, 3, 9, 38, 13, 16, 0)
s = 49: (0, 61, 9, 5, 8, 9, 3, 5, 46, 9, 11, 0)
s = 50: (0, 37, 12, 5, 10, 7, 3, 6, 58, 8, 18, 0)
s = 51: (0, 65, 10, 5, 7, 6, 3, 6, 39, 8, 9, 0)
s = 52: (0, 43, 11, 4, 5, 11, 2, 11, 39, 8, 15, 0)
s = 53: (0, 37, 10, 6, 10, 7, 2, 10, 35, 8, 10, 0)
s = 54: (0, 58, 9, 6, 9, 10, 3, 6, 35, 9, 12, 0)
s = 55: (0, 32, 7, 6, 7, 6, 2, 7, 50, 9, 15, 0)
s = 56: (0, 49, 5, 5, 7, 7, 2, 11, 39, 9, 16, 0)
s = 57: (0, 44, 6, 4, 9, 5, 3, 8, 50, 9, 10, 0)
s = 58: (0, 71, 8, 4, 11, 10, 3, 8, 43, 9, 14, 0)
s = 59: (0, 70, 10, 6, 10, 6, 2, 6, 31, 13, 16, 0)
s = 60: (0, 31, 11, 4, 8, 8, 2, 5, 25, 11, 19, 0)
s = 61: (0, 43, 7, 4, 9, 9, 3, 11, 33, 7, 12, 0)
s = 62: (0, 45, 8, 5, 6, 5, 2, 4, 35, 8, 19, 0)
s = 63: (0, 61, 9, 6, 6, 12, 2, 6, 37, 15, 12, 0)
s = 64: (0, 34, 11, 4, 6, 9, 3, 14, 26, 6, 12, 0)
s = 65: (0, 53, 6, 7, 8, 11, 2, 11, 36, 15, 13, 0)
s = 66: (0, 50, 8, 6, 10, 11, 3, 6, 38, 9, 10, 0)
s = 67: (0, 36, 7, 7, 8, 9, 3, 8, 31, 7, 17, 0)
s = 68: (0, 44, 6, 8, 9, 5, 2, 5, 39, 8, 16, 0)
s = 69: (0, 32, 5, 10, 8, 7, 3, 8, 30, 14, 10, 0)
s = 70: (0, 50, 6, 4, 9, 8, 2, 8, 41, 13, 15, 0)
s = 71: (0, 38, 9, 4, 10, 11, 2, 4, 43, 11, 8, 0)
s = 72: (0, 62, 12, 4, 8, 5, 2, 9, 58, 15, 17, 0)
s = 73: (0, 36, 6, 5, 10, 9, 2, 8, 37, 9, 11, 0)
s = 74: (0, 31, 5, 7, 8, 11, 3, 7, 28, 9, 14, 0)
s = 75: (0, 39, 8, 5, 9, 7, 2, 8, 29, 10, 12, 0)
s = 76: (0, 30, 9, 5, 9, 8, 2, 6, 48, 9, 14, 0)
s = 77: (0, 50, 12, 8, 8, 14, 2, 8, 30, 8, 15, 0)
s = 78: (0, 32, 11, 6, 10, 9, 3, 6, 26, 7, 16, 0)
s = 79: (0, 53, 8, 4, 11, 7, 2, 7, 31, 6, 10, 0)
s = 80: (0, 50, 8, 8, 7, 10, 3, 7, 36, 8, 9, 0)
s = 81: (0, 28, 9, 6, 8, 9, 2, 5, 25, 6, 14, 0)
s = 82: (0, 48, 9, 5, 9, 8, 3, 7, 61, 11, 23, 0)
s = 83: (0, 26, 6, 7, 7, 5, 3, 7, 55, 10, 14, 0)
s = 84: (0, 25, 5, 6, 8, 7, 3, 6, 61, 7, 11, 0)
s = 85: (0, 38, 7, 9, 8, 6, 3, 10, 45, 9, 11, 0)
s = 86: (0, 42, 6, 6, 9, 8, 2, 7, 21, 7, 13, 0)
s = 87: (0, 36, 6, 4, 7, 7, 2, 7, 31, 6, 14, 0)
s = 88: (0, 42, 12, 6, 10, 6, 2, 8, 43, 15, 14, 0)
s = 89: (0, 31, 7, 3, 14, 6, 3, 8, 23, 16, 17, 0)
s = 90: (0, 68, 13, 4, 7, 7, 3, 9, 41, 12, 9, 0)
s = 91: (0, 35, 7, 8, 7, 7, 2, 7, 35, 8, 9, 0)
s = 92: (0, 27, 11, 5, 5, 8, 3, 9, 22, 6, 10, 0)
s = 93: (0, 40, 6, 5, 9, 9, 2, 6, 31, 6, 11, 0)
s = 94: (0, 43, 7, 4, 7, 9, 4, 10, 53, 10, 14, 0)
s = 95: (0, 32, 10, 6, 7, 10, 3, 5, 23, 10, 12, 0)
s = 96: (0, 39, 11, 9, 10, 7, 2, 9, 49, 6, 12, 0)
s = 97: (0, 26, 6, 6, 10, 9, 2, 7, 28, 7, 17, 0)
s = 98: (0, 45, 10, 6, 7, 9, 3, 8, 48, 10, 14, 0)
s = 99: (0, 27, 7, 7, 7, 9, 4, 8, 43, 9, 11, 0)
s = 100: (0, 29, 5, 4, 5, 5, 2, 7, 32, 8, 13, 0)
s = 101: (0, 44, 10, 5, 7, 6, 3, 9, 28, 10, 11, 0)
s = 102: (0, 41, 6, 4, 11, 4, 2, 11, 32, 8, 13, 0)
s = 103: (0, 34, 8, 7, 15, 6, 2, 8, 56, 10, 14, 0)
s = 104: (0, 58, 11, 6, 7, 5, 2, 7, 30, 6, 13, 0)
s = 105: (0, 25, 5, 6, 8, 11, 3, 6, 27, 6, 12, 0)
s = 106: (0, 45, 5, 8, 9, 7, 2, 11, 24, 10, 16, 0)
s = 107: (0, 28, 11, 4, 7, 7, 3, 9, 31, 10, 10, 0)
s = 108: (0, 46, 6, 6, 12, 8, 2, 8, 28, 8, 12, 0)
s = 109: (0, 58, 8, 8, 5, 5, 2, 6, 29, 6, 9, 0)
s = 110: (0, 32, 9, 5, 8, 7, 2, 5, 35, 8, 13, 0)
s = 111: (0, 32, 9, 4, 8, 6, 2, 4, 52, 8, 13, 0)
s = 112: (0, 29, 8, 5, 9, 12, 2, 10, 43, 13, 14, 0)
s = 113: (0, 31, 6, 5, 8, 11, 2, 8, 38, 8, 11, 0)
s = 114: (0, 29, 11, 4, 11, 5, 2, 6, 46, 6, 11, 0)
s = 115: (0, 34, 8, 4, 6, 7, 3, 8, 32, 9, 10, 0)
s = 116: (0, 38, 7, 4, 8, 7, 2, 8, 45, 8, 19, 0)
s = 117: (0, 38, 12, 6, 7, 10, 3, 8, 22, 13, 13, 0)
s = 118: (0, 57, 8, 8, 7, 6, 3, 9, 39, 11, 13, 0)
s = 119: (0, 50, 7, 5, 11, 8, 3, 6, 26, 8, 19, 0)
s = 120: (0, 41, 8, 7, 14, 8, 4, 6, 43, 8, 11, 0)
s = 121: (0, 40, 5, 4, 11, 8, 3, 8, 33, 6, 7, 0)
s = 122: (0, 55, 10, 6, 8, 4, 4, 7, 27, 10, 11, 0)
s = 123: (0, 30, 10, 6, 11, 8, 3, 6, 44, 9, 14, 0)
s = 124: (0, 30, 8, 8, 8, 9, 3, 6, 50, 10, 19, 0)
s = 125: (0, 31, 7, 3, 9, 9, 4, 4, 39, 12, 14, 0)
s = 126: (0, 32, 10, 6, 13, 8, 3, 9, 37, 9, 8, 0)
s = 127: (0, 54, 13, 4, 10, 11, 4, 12, 41, 12, 8, 0)
s = 128: (0, 53, 6, 5, 6, 8, 2, 11, 56, 11, 18, 0)
s = 129: (0, 36, 10, 8, 7, 5, 4, 4, 34, 8, 10, 0)
s = 130: (0, 25, 10, 5, 10, 8, 3, 10, 45, 9, 13, 0)
s = 131: (0, 29, 10, 6, 9, 5, 2, 7, 46, 10, 11, 0)
s = 132: (0, 40, 6, 9, 10, 12, 2, 6, 34, 10, 9, 0)
s = 133: (0, 56, 5, 4, 11, 11, 2, 8, 26, 13, 12, 0)
s = 134: (0, 41, 11, 5, 8, 8, 3, 8, 28, 7, 12, 0)
s = 135: (0, 58, 7, 6, 8, 7, 3, 9, 28, 6, 13, 0)
s = 136: (0, 34, 5, 5, 9, 4, 2, 5, 35, 11, 14, 0)
s = 137: (0, 40, 6, 5, 9, 6, 3, 6, 35, 9, 15, 0)
s = 138: (0, 34, 6, 5, 7, 9, 2, 9, 29, 8, 13, 0)
s = 139: (0, 36, 7, 3, 14, 7, 2, 7, 28, 9, 10, 0)
s = 140: (0, 57, 5, 5, 6, 7, 2, 13, 23, 8, 12, 0)
s = 141: (0, 31, 6, 7, 5, 12, 2, 8, 35, 9, 9, 0)
s = 142: (0, 47, 8, 5, 8, 5, 2, 7, 47, 8, 20, 0)
s = 143: (0, 25, 5, 7, 5, 5, 3, 7, 44, 11, 12, 0)
s = 144: (0, 62, 8, 4, 6, 11, 2, 5, 48, 6, 12, 0)
s = 145: (0, 44, 10, 8, 9, 6, 4, 5, 23, 5, 15, 0)
s = 146: (0, 48, 6, 5, 9, 6, 3, 9, 59, 7, 13, 0)
s = 147: (0, 29, 8, 6, 8, 5, 4, 10, 51, 7, 15, 0)
s = 148: (0, 49, 12, 4, 11, 9, 2, 8, 41, 8, 14, 0)
s = 149: (0, 48, 8, 4, 11, 4, 3, 8, 33, 9, 11, 0)
s = 150: (0, 55, 14, 5, 6, 7, 2, 6, 25, 8, 10, 0)
s = 151: (0, 40, 7, 5, 7, 5, 3, 10, 37, 15, 23, 0)
s = 152: (0, 32, 12, 4, 7, 9, 2, 5, 43, 6, 13, 0)
s = 153: (0, 30, 10, 5, 6, 8, 4, 6, 50, 10, 14, 0)
s = 154: (0, 32, 9, 8, 6, 6, 2, 9, 31, 9, 14, 0)
s = 155: (0, 50, 5, 5, 6, 9, 3, 9, 41, 7, 10, 0)
s = 156: (0, 40, 11, 6, 9, 8, 3, 6, 47, 6, 10, 0)
s = 157: (0, 41, 9, 4, 8, 10, 3, 5, 57, 13, 13, 0)
s = 158: (0, 32, 12, 8, 9, 10, 2, 7, 35, 14, 10, 0)
s = 159: (0, 35, 11, 5, 8, 8, 4, 7, 46, 10, 10, 0)
s = 160: (0, 35, 7, 3, 5, 10, 2, 9, 32, 11, 14, 0)
s = 161: (0, 27, 6, 4, 14, 7, 2, 4, 46, 11, 9, 0)
s = 162: (0, 40, 11, 5, 9, 8, 2, 10, 22, 8, 12, 0)
s = 163: (0, 58, 10, 4, 10, 6, 3, 12, 28, 5, 13, 0)
s = 164: (0, 44, 12, 7, 11, 6, 3, 9, 30, 10, 11, 0)
s = 165: (0, 42, 10, 6, 7, 9, 2, 5, 53, 6, 16, 0)
s = 166: (0, 50, 7, 6, 10, 8, 2, 6, 57, 8, 17, 0)
s = 167: (0, 36, 7, 4, 7, 9, 3, 7, 19, 8, 11, 0)
s = 168: (0, 58, 6, 9, 6, 10, 2, 6, 42, 14, 11, 0)
s = 169: (0, 61, 9, 6, 6, 9, 2, 7, 59, 7, 11, 0)
s = 170: (0, 49, 13, 6, 7, 10, 2, 7, 19, 11, 14, 0)
s = 171: (0, 35, 13, 6, 6, 5, 3, 8, 46, 10, 21, 0)
s = 172: (0, 46, 9, 6, 9, 8, 3, 7, 48, 9, 13, 0)
s = 173: (0, 32, 6, 9, 9, 7, 2, 9, 30, 10, 7, 0)
s = 174: (0, 53, 6, 8, 8, 7, 3, 5, 22, 6, 9, 0)
s = 175: (0, 33, 6, 5, 10, 8, 2, 6, 38, 7, 7, 0)
s = 176: (0, 36, 11, 5, 9, 6, 3, 9, 56, 6, 9, 0)
s = 177: (0, 40, 6, 3, 9, 7, 2, 7, 33, 14, 12, 0)
s = 178: (0, 53, 8, 4, 6, 10, 3, 7, 28, 6, 17, 0)
s = 179: (0, 47, 8, 4, 8, 7, 2, 4, 50, 11, 12, 0)
s = 180: (0, 45, 8, 6, 7, 7, 3, 7, 24, 9, 11, 0)
s = 181: (0, 35, 6, 5, 9, 7, 2, 8, 33, 12, 7, 0)
s = 182: (0, 33, 7, 3, 9, 9, 2, 7, 31, 7, 17, 0)
s = 183: (0, 42, 5, 4, 7, 9, 2, 9, 50, 14, 18, 0)
s = 184: (0, 46, 8, 4, 7, 10, 2, 6, 32, 9, 15, 0)
s = 185: (0, 46, 12, 7, 10, 5, 2, 8, 32, 12, 10, 0)
s = 186: (0, 41, 13, 5, 7, 12, 2, 6, 34, 6, 10, 0)
s = 187: (0, 43, 10, 6, 7, 10, 2, 6, 36, 13, 16, 0)
s = 188: (0, 35, 7, 6, 7, 7, 3, 8, 37, 10, 14, 0)
s = 189: (0, 51, 7, 4, 5, 9, 2, 6, 35, 12, 14, 0)
s = 190: (0, 41, 6, 4, 8, 11, 3, 11, 26, 6, 11, 0)
s = 191: (0, 40, 9, 5, 6, 6, 2, 10, 41, 9, 12, 0)
s = 192: (0, 56, 6, 8, 13, 5, 2, 7, 29, 10, 12, 0)
s = 193: (0, 45, 6, 5, 6, 8, 2, 8, 46, 12, 8, 0)
s = 194: (0, 28, 7, 7, 9, 11, 3, 4, 41, 7, 14, 0)
s = 195: (0, 51, 12, 4, 7, 6, 2, 8, 27, 13, 14, 0)
s = 196: (0, 54, 5, 5, 8, 11, 3, 9, 20, 9, 14, 0)
s = 197: (0, 26, 8, 6, 6, 11, 2, 9, 38, 12, 10, 0)
s = 198: (0, 40, 12, 6, 6, 6, 2, 9, 35, 14, 10, 0)
s = 199: (0, 53, 9, 7, 9, 10, 2, 9, 72, 6, 9, 0)
s = 200: (0, 41, 8, 5, 8, 6, 2, 6, 29, 10, 8, 0)
************************************************************************
ES/LS-VALUES:
jobnr.   ES(i)    LS(i)
------------------------------------------------------------------------
  0        0        0
  1        0       52
  2        0       67
  3        0       71
  4       12       65
  5       14       73
  6       14       67
  7       14       71
  8       16       69
  9       16       75
 10       16       73
 11       24       77
************************************************************************
BIG-M-VALUES:
M1 = 72, M2 = 403
************************************************************************
